
Gurobi 9.0.2 (linux64) logging started Sat Jun  6 19:31:20 2020

Changed value of parameter LogFile to gurobi_logs/2020-06-06_19:31:18-rproblem3_30_employees_mode=feasibility_sdp_reduce.log
   Prev:   Default: 
Parameter MIPFocus unchanged
   Value: 0  Min: 0  Max: 3  Default: 0
Parameter SolutionLimit unchanged
   Value: 2000000000  Min: 1  Max: 2000000000  Default: 2000000000
Parameter LogToConsole unchanged
   Value: 1  Min: 0  Max: 1  Default: 1
Changed value of parameter TimeLimit to 10000.0
   Prev: inf  Min: 0.0  Max: inf  Default: inf
Gurobi Optimizer version 9.0.2 build v9.0.2rc0 (linux64)
Optimize a model with 4000 rows, 4424 columns and 19620 nonzeros
Model fingerprint: 0x0e941ebb
Variable types: 48 continuous, 4376 integer (424 binary)
Coefficient statistics:
  Matrix range     [5e-01, 1e+03]
  Objective range  [2e-01, 5e+00]
  Bounds range     [1e+00, 1e+00]
  RHS range        [1e+00, 2e+01]
Presolve removed 3967 rows and 4375 columns
Presolve time: 0.24s
Presolved: 33 rows, 49 columns, 137 nonzeros
Variable types: 0 continuous, 49 integer (16 binary)
Found heuristic solution: objective 218.0000000
Found heuristic solution: objective 202.0000000

Root relaxation: objective 1.762713e+02, 33 iterations, 0.00 seconds

    Nodes    |    Current Node    |     Objective Bounds      |     Work
 Expl Unexpl |  Obj  Depth IntInf | Incumbent    BestBd   Gap | It/Node Time

     0     0  176.27134    0    7  202.00000  176.27134  12.7%     -    0s
H    0     0                     181.5000000  176.27134  2.88%     -    0s
H    0     0                     180.5000000  176.27134  2.34%     -    0s
     0     0  179.14091    0    3  180.50000  179.14091  0.75%     -    0s
H    0     0                     180.0000000  179.14091  0.48%     -    0s
     0     0  180.00000    0    8  180.00000  180.00000  0.00%     -    0s

Cutting planes:
  Gomory: 4
  Implied bound: 1
  Clique: 1
  MIR: 10
  StrongCG: 1
  Flow cover: 4
  Zero half: 2

Explored 1 nodes (53 simplex iterations) in 0.25 seconds
Thread count was 24 (of 48 available processors)

Solution count 5: 180 180.5 181.5 ... 218

Optimal solution found (tolerance 1.00e-04)
Best objective 1.800000000000e+02, best bound 1.800000000000e+02, gap 0.0000%

Gurobi 9.0.2 (linux64) logging started Sat Jun  6 19:31:21 2020

Changed value of parameter LogFile to gurobi_logs/2020-06-06_19:31:18-rproblem3_30_employees_mode=feasibility_sdp_reduce.log
   Prev:   Default: 
Parameter MIPFocus unchanged
   Value: 0  Min: 0  Max: 3  Default: 0
Parameter SolutionLimit unchanged
   Value: 2000000000  Min: 1  Max: 2000000000  Default: 2000000000
Parameter LogToConsole unchanged
   Value: 1  Min: 0  Max: 1  Default: 1
Changed value of parameter TimeLimit to 10000.0
   Prev: inf  Min: 0.0  Max: inf  Default: inf
Gurobi Optimizer version 9.0.2 build v9.0.2rc0 (linux64)
Optimize a model with 90378 rows, 58218 columns and 1676460 nonzeros
Model fingerprint: 0x36ba8e03
Variable types: 30 continuous, 58188 integer (54660 binary)
Coefficient statistics:
  Matrix range     [2e-01, 1e+02]
  Objective range  [1e+00, 1e+00]
  Bounds range     [1e+00, 1e+00]
  RHS range        [1e+00, 2e+02]
Presolve removed 70087 rows and 34703 columns
Presolve time: 2.71s
Presolved: 20291 rows, 23515 columns, 269605 nonzeros
Variable types: 0 continuous, 23515 integer (23370 binary)

Deterministic concurrent LP optimizer: primal and dual simplex
Showing first log only...

Concurrent spin time: 0.10s

Solved with dual simplex

Root relaxation: objective 1.545200e+04, 6593 iterations, 0.86 seconds

    Nodes    |    Current Node    |     Objective Bounds      |     Work
 Expl Unexpl |  Obj  Depth IntInf | Incumbent    BestBd   Gap | It/Node Time

*    0     0               0    15452.000000 15452.0000  0.00%     -    4s

Explored 0 nodes (14382 simplex iterations) in 4.75 seconds
Thread count was 24 (of 48 available processors)

Solution count 1: 15452 

Optimal solution found (tolerance 1.00e-04)
Best objective 1.545200000000e+04, best bound 1.545200000000e+04, gap 0.0000%
